************************************************************************
file with basedata            : md351_.bas
initial value random generator: 7654
************************************************************************
projects                      :  1
jobs (incl. supersource/sink ):  22
horizon                       :  151
RESOURCES
  - renewable                 :  2   R
  - nonrenewable              :  2   N
  - doubly constrained        :  0   D
************************************************************************
PROJECT INFORMATION:
pronr.  #jobs rel.date duedate tardcost  MPM-Time
    1     20      0       25        8       25
************************************************************************
PRECEDENCE RELATIONS:
jobnr.    #modes  #successors   successors
   1        1          3           2   3   4
   2        3          3           6  11  13
   3        3          1          12
   4        3          1           5
   5        3          3           7   8  11
   6        3          3           7   9  10
   7        3          2          14  15
   8        3          3          10  16  19
   9        3          2          16  18
  10        3          1          17
  11        3          2          15  16
  12        3          2          19  21
  13        3          3          14  15  17
  14        3          2          18  19
  15        3          2          18  21
  16        3          2          20  21
  17        3          1          20
  18        3          1          20
  19        3          1          22
  20        3          1          22
  21        3          1          22
  22        1          0        
************************************************************************
REQUESTS/DURATIONS:
jobnr. mode duration  R 1  R 2  N 1  N 2
------------------------------------------------------------------------
  1      1     0       0    0    0    0
  2      1     1       8   10    2    0
         2     2       6    9    0    7
         3     4       6    6    2    0
  3      1     3       7    9    0    7
         2     7       7    7    3    0
         3     7       7    6    0    6
  4      1     4       7    8    4    0
         2    10       7    7    0    8
         3    10       6    5    4    0
  5      1     5       3    4    6    0
         2     6       3    4    0    3
         3     7       2    3    6    0
  6      1     2       9    9    3    0
         2     6       8    7    0    9
         3     6       8    9    0    8
  7      1     1       9    3    7    0
         2     1       8    3    0    1
         3    10       8    2    8    0
  8      1     3       7    7    6    0
         2     9       3    7    5    0
         3     9       5    5    0   10
  9      1     3       6   10    0    9
         2     4       5    9    0    8
         3     6       3    7    0    8
 10      1     4       2    6    0    2
         2     5       1    5    9    0
         3     9       1    1    5    0
 11      1     2       9    8    8    0
         2     4       8    6    0    6
         3     8       7    5    0    3
 12      1     3       6    3    4    0
         2     4       5    2    2    0
         3     6       1    2    0    3
 13      1     2       8    7    8    0
         2     6       5    5    0    6
         3    10       1    5    0    3
 14      1     5       5    5    9    0
         2     7       5    4    8    0
         3     9       1    1    8    0
 15      1     3       9    9    0    6
         2     6       4    9    0    6
         3     7       3    9    0    5
 16      1     8       6   10    3    0
         2     9       6    2    1    0
         3     9       6    5    0    6
 17      1     2       8    2    9    0
         2     5       7    2    0    8
         3     5       7    2    6    0
 18      1     3       6   10    0    6
         2     4       3    9    9    0
         3     8       2    9    0    6
 19      1     3       7   10    0    6
         2     4       6    8    7    0
         3     9       3    8    0    5
 20      1     2       1    8    9    0
         2     2       1    9    8    0
         3     6       1    8    4    0
 21      1     5       8    7    7    0
         2     6       8    2    6    0
         3     6       5    2    0    6
 22      1     0       0    0    0    0
************************************************************************
RESOURCEAVAILABILITIES:
  R 1  R 2  N 1  N 2
   25   29  114  109
************************************************************************
